% seed = 9172492

mint = 26;
% maxt = 89;

nActs = 22;
dur = [0,1,1,2,1,2,6,5,8,10,5,7,3,6,6,6,5,10,1,2,2,0];

nSkills = 4;
sreq = [| 0,0,0,0,
	| 2,2,0,0,
	| 1,0,0,3,
	| 0,3,0,3,
	| 3,3,0,0,
	| 1,0,3,0,
	| 0,3,0,3,
	| 2,0,0,2,
	| 1,3,0,0,
	| 0,0,3,2,
	| 0,3,1,0,
	| 1,0,0,2,
	| 1,2,0,0,
	| 1,0,0,2,
	| 0,2,0,2,
	| 0,1,0,2,
	| 3,0,1,0,
	| 0,2,1,0,
	| 0,2,1,0,
	| 0,0,1,1,
	| 0,3,0,2,
	| 0,0,0,0, |];

nResources = 10;
mastery = [| false,false,true,false,
	| false,true,false,false,
	| true,true,false,false,
	| true,false,true,false,
	| true,false,true,false,
	| true,false,true,false,
	| false,true,true,false,
	| false,false,true,true,
	| false,true,true,true,
	| false,true,true,true, |];

nPrecs = 37;
pred = [1,1,1,2,3,3,3,4,4,4,5,5,6,6,7,7,7,8,8,9,10,10,11,12,12,13,13,14,15,16,16,17,17,18,19,20,21];
succ = [2,3,4,12,9,5,8,10,6,8,21,7,14,16,18,11,13,11,15,16,17,15,19,20,21,20,14,15,19,17,18,20,21,19,22,22,22];

nUnrels = 105;
unpred = [2,2,2,2,2,2,2,2,2,2,2,2,2,2,2,2,3,3,3,3,4,4,4,4,4,5,5,5,5,5,5,5,6,6,6,6,6,6,6,7,7,7,7,7,7,7,8,8,8,8,8,8,8,8,8,8,9,9,9,9,9,9,10,10,10,10,10,10,11,11,11,11,11,11,11,11,11,12,12,12,12,12,12,12,13,13,13,13,14,14,14,14,14,15,15,15,15,15,17,17,18,18,19,19,20];
unsucc = [3,4,5,6,7,8,9,10,11,13,14,15,16,17,18,19,4,6,10,12,5,7,9,12,13,6,8,9,10,12,16,17,7,8,9,10,11,12,13,8,9,10,12,16,17,21,9,10,12,13,14,16,17,18,20,21,10,11,12,13,14,15,11,12,13,14,16,18,12,13,14,15,16,17,18,20,21,13,14,15,16,17,18,19,16,17,18,21,16,17,18,20,21,16,17,18,20,21,18,19,20,21,20,21,21];

USEFUL_RES = [{},
	{2,3,4,5,6,7,9,10},
	{3,4,5,6,8,9,10},
	{2,3,7,8,9,10},
	{2,3,4,5,6,7,9,10},
	{1,3,4,5,6,7,8,9,10},
	{2,3,7,8,9,10},
	{3,4,5,6,8,9,10},
	{2,3,4,5,6,7,9,10},
	{1,4,5,6,7,8,9,10},
	{1,2,3,4,5,6,7,8,9,10},
	{3,4,5,6,8,9,10},
	{2,3,4,5,6,7,9,10},
	{3,4,5,6,8,9,10},
	{2,3,7,8,9,10},
	{2,3,7,8,9,10},
	{1,3,4,5,6,7,8,9,10},
	{1,2,3,4,5,6,7,8,9,10},
	{1,2,3,4,5,6,7,8,9,10},
	{1,4,5,6,7,8,9,10},
	{2,3,7,8,9,10},
	{}];

POTENTIAL_ACT = [{6,10,11,17,18,19,20},
	{2,4,5,7,9,11,13,15,16,18,19,21},
	{2,3,4,5,6,7,8,9,11,12,13,14,15,16,17,18,19,21},
	{2,3,5,6,8,9,10,11,12,13,14,17,18,19,20},
	{2,3,5,6,8,9,10,11,12,13,14,17,18,19,20},
	{2,3,5,6,8,9,10,11,12,13,14,17,18,19,20},
	{2,4,5,6,7,9,10,11,13,15,16,17,18,19,20,21},
	{3,4,6,7,8,10,11,12,14,15,16,17,18,19,20,21},
	{2,3,4,5,6,7,8,9,10,11,12,13,14,15,16,17,18,19,20,21},
	{2,3,4,5,6,7,8,9,10,11,12,13,14,15,16,17,18,19,20,21}];
